9 0 1 0 0 0 1 0 0 0 1 -50 -2 0 3.35 0.5 3.35
9 0 1 0 0 0 1 0 0 0 1 50 -2 0 3.35 0.5 3.35
9 0 1 0 0 0 1 0 0 0 1 -8 2 -1 50.5 0.5 9.5
9 0 1 0 0 0 1 0 0 0 1 58 15.5 -11.5 0.5 7 20
9 0 1 0 0 0 1 0 0 0 1 42 15.5 -11.5 0.5 7 20
9 0 1 0 0 0 1 0 0 0 1 -42 15.5 -11.5 0.5 7 20
9 0 1 0 0 0 1 0 0 0 1 -58 15.5 -11.5 0.5 7 20
9 0 1 0 0 0 1 0 0 0 1 50 12 8 7.5 10.5 0.5
9 0 1 0 0 0 1 0 0 0 1 -50 12.5 8 7.5 10 0.5
9 0 1 0 0 0 1 0 0 0 1 50.5 2 -1 8 0.5 8.5
9 0 1 0 0 0 1 0 0 0 1 58 19 -42 0.5 3.5 10.5
9 0 1 0 0 0 1 0 0 0 1 42 19 -42 0.5 3.5 10.5
9 0 1 0 0 0 1 0 0 0 1 -42 19 -42 0.5 3.5 10.5
9 0 1 0 0 0 1 0 0 0 1 -58 19 -42 0.5 3.5 10.5
9 0 1 0 0 0 1 0 0 0 1 50 14.5 -10 1.5 8 1.5
9 0 1 0 0 0 1 0 0 0 1 -50 14.5 -10 1.5 8 1.5
9 0 1 0 0 0 1 0 0 0 1 58 5.5 -2.5 0.5 3 11
9 0 1 0 0 0 1 0 0 0 1 42 5.5 -2.5 0.5 3 11
9 0 1 0 0 0 1 0 0 0 1 -42 5.5 -2.5 0.5 3 11
9 0 1 0 0 0 1 0 0 0 1 -58 5.5 -2.5 0.5 3 11
9 0 1 0 0 0 1 0 0 0 1 0 22 -68 58.5 0.5 0.5
9 0 1 0 0 0 1 0 0 0 1 0 17 -55 58.5 0.5 0.5
9 0 1 0 0 0 1 0 0 0 1 0 15 -49 58.5 0.5 0.5
9 0 1 0 0 0 1 0 0 0 1 0 13 -43 58.5 0.5 0.5
9 0 1 0 0 0 1 0 0 0 1 0 11 -37 58.5 0.5 0.5
9 0 1 0 0 0 1 0 0 0 1 0 7 -25 58.5 0.5 0.5
9 0 1 0 0 0 1 0 0 0 1 0 5 -19 58.5 0.5 0.5
9 0 1 0 0 0 1 0 0 0 1 8.5 18 -58 46 0.5 0.5
9 0 1 0 0 0 1 0 0 0 1 50 17.5 -30 1.5 5 1.5
9 0 1 0 0 0 1 0 0 0 1 -50 17.5 -30 1.5 5 1.5
9 0 1 0 0 0 1 0 0 0 1 0 4 -16 42.5 0.5 0.5
9 0 1 0 0 0 1 0 0 0 1 0 9 -31 41.5 0.5 0.5
9 0 1 0 0 0 1 0 0 0 1 0 3 -13 41.5 0.5 0.5
9 0 1 0 0 0 1 0 0 0 1 -5.5 6 -22 37 0.5 0.5
9 0 1 0 0 0 1 0 0 0 1 20.5 14 -46 34 0.5 0.5
9 0 1 0 0 0 1 0 0 0 1 8 16 -52 33.5 0.5 0.5
9 0 1 0 0 0 1 0 0 0 1 -11.5 8 -28 31 0.5 0.5
9 0 1 0 0 0 1 0 0 0 1 26.5 12 -40 28 0.5 0.5
9 0 1 0 0 0 1 0 0 0 1 -17.5 10 -34 25 0.5 0.5
9 0 1 0 0 0 1 0 0 0 1 32.5 10 -34 22 0.5 0.5
9 0 1 0 0 0 1 0 0 0 1 -23.5 12 -40 19 0.5 0.5
9 0 1 0 0 0 1 0 0 0 1 58 21 -58.5 0.5 1.5 6
9 0 1 0 0 0 1 0 0 0 1 58 13.5 -36 0.5 2 4.5
9 0 1 0 0 0 1 0 0 0 1 42 21 -58.5 0.5 1.5 6
9 0 1 0 0 0 1 0 0 0 1 -42 21 -58.5 0.5 1.5 6
9 0 1 0 0 0 1 0 0 0 1 -58 21 -58.5 0.5 1.5 6
9 0 1 0 0 0 1 0 0 0 1 -58 13.5 -36 0.5 2 4.5
9 0 1 0 0 0 1 0 0 0 1 42 14 -37 0.5 1.5 5.5
9 0 1 0 0 0 1 0 0 0 1 -42 14 -37 0.5 1.5 5.5
9 0 1 0 0 0 1 0 0 0 1 38.5 8 -28 16 0.5 0.5
9 0 1 0 0 0 1 0 0 0 1 58 7 -18 0.5 1.5 4.5
9 0 1 0 0 0 1 0 0 0 1 50 21 -50 1.5 1.5 1.5
9 0 1 0 0 0 1 0 0 0 1 42 7 -18 0.5 1.5 4.5
9 0 1 0 0 0 1 0 0 0 1 -50 21 -50 1.5 1.5 1.5
9 0 1 0 0 0 1 0 0 0 1 -58 7 -18 0.5 1.5 4.5
9 0 1 0 0 0 1 0 0 0 1 -29.5 14 -46 13 0.5 0.5
9 0 1 0 0 0 1 0 0 0 1 -42 7 -17.5 0.5 1.5 4
9 0 1 0 0 0 1 0 0 0 1 52 14 -10 0.5 8.5 0.5
9 0 1 0 0 0 1 0 0 0 1 50 14 -8 0.5 8.5 0.5
9 0 1 0 0 0 1 0 0 0 1 48 14 -10 0.5 8.5 0.5
9 0 1 0 0 0 1 0 0 0 1 -48 14 -10 0.5 8.5 0.5
9 0 1 0 0 0 1 0 0 0 1 -50 14 -8 0.5 8.5 0.5
9 0 1 0 0 0 1 0 0 0 1 -52 14 -10 0.5 8.5 0.5
9 0 1 0 0 0 1 0 0 0 1 50 14.5 -12 0.5 8 0.5
9 0 1 0 0 0 1 0 0 0 1 -50 14.5 -12 0.5 8 0.5
9 0 1 0 0 0 1 0 0 0 1 50 9 -31 7.5 0.5 0.5
9 0 1 0 0 0 1 0 0 0 1 50 3 -13 7.5 0.5 0.5
9 0 1 0 0 0 1 0 0 0 1 -50 9 -31 7.5 0.5 0.5
9 0 1 0 0 0 1 0 0 0 1 -50 3 -13 7.5 0.5 0.5
9 0 1 0 0 0 1 0 0 0 1 49 2 -10 6.5 0.5 0.5
9 0 1 0 0 0 1 0 0 0 1 -35 16 -52 6.5 0.5 0.5
9 0 1 0 0 0 1 0 0 0 1 -52 18 -58 6.5 0.5 0.5
9 0 1 0 0 0 1 0 0 0 1 -52 14 -46 6.5 0.5 0.5
9 0 1 0 0 0 1 0 0 0 1 -52 10 -34 6.5 0.5 0.5
9 0 1 0 0 0 1 0 0 0 1 -52 8 -28 6.5 0.5 0.5
9 0 1 0 0 0 1 0 0 0 1 -52 4 -16 6.5 0.5 0.5
9 0 1 0 0 0 1 0 0 0 1 58 18.5 -55.5 0.5 1 3
9 0 1 0 0 0 1 0 0 0 1 58 14.5 -43.5 0.5 1 3
9 0 1 0 0 0 1 0 0 0 1 48.5 16 -52 6 0.5 0.5
9 0 1 0 0 0 1 0 0 0 1 48.5 6 -22 6 0.5 0.5
9 0 1 0 0 0 1 0 0 0 1 -42 18.5 -55.5 0.5 1 3
9 0 1 0 0 0 1 0 0 0 1 -51.5 16 -52 6 0.5 0.5
9 0 1 0 0 0 1 0 0 0 1 -51.5 12 -40 6 0.5 0.5
9 0 1 0 0 0 1 0 0 0 1 -51.5 6 -22 6 0.5 0.5
9 0 1 0 0 0 1 0 0 0 1 50 17 -28 0.5 5.5 0.5
9 0 1 0 0 0 1 0 0 0 1 -50 17 -28 0.5 5.5 0.5
9 0 1 0 0 0 1 0 0 0 1 52 17.5 -30 0.5 5 0.5
9 0 1 0 0 0 1 0 0 0 1 48 17.5 -30 0.5 5 0.5
9 0 1 0 0 0 1 0 0 0 1 42 18.5 -55 0.5 1 2.5
9 0 1 0 0 0 1 0 0 0 1 42 11.5 -34 0.5 1 2.5
9 0 1 0 0 0 1 0 0 0 1 -42 11.5 -34 0.5 1 2.5
9 0 1 0 0 0 1 0 0 0 1 -48 17.5 -30 0.5 5 0.5
9 0 1 0 0 0 1 0 0 0 1 -52 17.5 -30 0.5 5 0.5
9 0 1 0 0 0 1 0 0 0 1 -58 18.5 -55 0.5 1 2.5
9 0 1 0 0 0 1 0 0 0 1 -58 14.5 -43 0.5 1 2.5
9 0 1 0 0 0 1 0 0 0 1 50 18 -32 0.5 4.5 0.5
9 0 1 0 0 0 1 0 0 0 1 -50 18 -32 0.5 4.5 0.5
9 0 1 0 0 0 1 0 0 0 1 50.5 4 -16 4 0.5 0.5
