9 0 -1.192093E-07 0 -1 0 -1 0 -1 0 -1.192093E-07 10 -2 -20 -3.35 -0.5 -3.35
9 0 -1.192093E-07 0 -1 0 -1 0 -1 0 -1.192093E-07 10 -2 0 -3.35 -0.5 -3.35
9 0 -1.192093E-07 0 -1 0 -1 0 -1 0 -1.192093E-07 10 -2 20 -3.35 -0.5 -3.35
9 0 -1.192093E-07 0 -1 0 -1 0 -1 0 -1.192093E-07 -10 -2 -20 -3.35 -0.5 -3.35
9 0 -1.192093E-07 0 -1 0 -1 0 -1 0 -1.192093E-07 -10 -2 0 -3.35 -0.5 -3.35
9 0 -1.192093E-07 0 -1 0 -1 0 -1 0 -1.192093E-07 -10 -2 20 -3.35 -0.5 -3.35
9 0 -1.192093E-07 0 -1 0 -1 0 -1 0 -1.192093E-07 -30 -2 -20 -3.35 -0.5 -3.35
9 0 -1.192093E-07 0 -1 0 -1 0 -1 0 -1.192093E-07 -30 -2 0 -3.35 -0.5 -3.35
9 0 -1.192093E-07 0 -1 0 -1 0 -1 0 -1.192093E-07 -30 -2 20 -3.35 -0.5 -3.35
9 0 1 0 0 0 1 0 0 0 1 -9.5 2 0.5 29 0.5 28
9 0 1 0 0 0 1 0 0 0 1 -0.5 4.5 28 38 2 0.5
9 0 1 0 0 0 1 0 0 0 1 -10 4 -28 28.5 2.5 0.5
9 0 1 0 0 0 1 0 0 0 1 24 2 14 4.5 0.5 14.5
9 0 1 0 0 0 1 0 0 0 1 -38 4.5 0 0.5 2 27.5
9 0 1 0 0 0 1 0 0 0 1 31 2 21.5 2.5 0.5 7
9 0 1 0 0 0 1 0 0 0 1 22 2 -6.5 2.5 0.5 6
9 0 1 0 0 0 1 0 0 0 1 10 -2 -20 3.5 0.5 2.5
9 0 1 0 0 0 1 0 0 0 1 10 -2 0 3.5 0.5 2.5
9 0 1 0 0 0 1 0 0 0 1 10 -2 20 3.5 0.5 2.5
9 0 1 0 0 0 1 0 0 0 1 -10 -2 -20 3.5 0.5 2.5
9 0 1 0 0 0 1 0 0 0 1 -10 -2 0 3.5 0.5 2.5
9 0 1 0 0 0 1 0 0 0 1 -10 -2 20 3.5 0.5 2.5
9 0 1 0 0 0 1 0 0 0 1 -30 -2 -20 3.5 0.5 2.5
9 0 1 0 0 0 1 0 0 0 1 -30 -2 0 3.5 0.5 2.5
9 0 1 0 0 0 1 0 0 0 1 -30 -2 20 3.5 0.5 2.5
9 0 1 0 0 0 1 0 0 0 1 30 2 11.5 1.5 0.5 3
9 0 1 0 0 0 1 0 0 0 1 21 2 -15.5 1.5 0.5 3
9 0 1 0 0 0 1 0 0 0 1 34.5 2 24.5 1 0.5 4
9 0 1 0 0 0 1 0 0 0 1 25.5 2 -3.5 1 0.5 3
