9 0 -1.192093E-07 0 1 0 1 0 -1 0 -1.192093E-07 -10 -2 -20 3.35 0.5 3.35
9 0 -1.192093E-07 0 1 0 1 0 -1 0 -1.192093E-07 -10 -2 0 3.35 0.5 3.35
9 0 -1.192093E-07 0 1 0 1 0 -1 0 -1.192093E-07 -10 -2 20 3.35 0.5 3.35
9 0 -1.192093E-07 0 1 0 1 0 -1 0 -1.192093E-07 10 -2 -20 3.35 0.5 3.35
9 0 -1.192093E-07 0 1 0 1 0 -1 0 -1.192093E-07 10 -2 0 3.35 0.5 3.35
9 0 -1.192093E-07 0 1 0 1 0 -1 0 -1.192093E-07 10 -2 20 3.35 0.5 3.35
9 0 -1.192093E-07 0 1 0 1 0 -1 0 -1.192093E-07 30 -2 -20 3.35 0.5 3.35
9 0 -1.192093E-07 0 1 0 1 0 -1 0 -1.192093E-07 30 -2 0 3.35 0.5 3.35
9 0 -1.192093E-07 0 1 0 1 0 -1 0 -1.192093E-07 30 -2 20 3.35 0.5 3.35
9 0 1 0 0 0 1 0 0 0 1 10 2 0 28.5 0.5 28.5
9 0 1 0 0 0 1 0 0 0 1 0.5 4.5 28 38 2 0.5
9 0 1 0 0 0 1 0 0 0 1 -23.5 2 14 5 0.5 14.5
9 0 1 0 0 0 1 0 0 0 1 10 4.5 -28 28.5 2 0.5
9 0 1 0 0 0 1 0 0 0 1 38 4.5 0 0.5 2 27.5
9 0 1 0 0 0 1 0 0 0 1 -21 2 -8 2.5 0.5 7.5
9 0 1 0 0 0 1 0 0 0 1 -31 2 21.5 2.5 0.5 7
9 0 1 0 0 0 1 0 0 0 1 -19.5 2 -20 1 0.5 4.5
9 0 1 0 0 0 1 0 0 0 1 -24.5 2 -5 1 0.5 4.5
9 0 1 0 0 0 1 0 0 0 1 -29.5 2 10 1 0.5 4.5
9 0 1 0 0 0 1 0 0 0 1 -34.5 2 24.5 1 0.5 4
