9 0 -1.192093E-07 0 1 0 1 0 -1 0 -1.192093E-07 70 -2 30 3.35 0.5 3.35
9 0 -1.192093E-07 0 1 0 1 0 -1 0 -1.192093E-07 -70 -2 30 3.35 0.5 3.35
9 0 -1.192093E-07 0 1 0 1 0 -1 0 -1.192093E-07 -50 -2 -30 3.35 0.5 3.35
9 0 -1.192093E-07 0 1 0 1 0 -1 0 -1.192093E-07 -50 -2 -10 3.35 0.5 3.35
9 0 -1.192093E-07 0 1 0 1 0 -1 0 -1.192093E-07 -50 -2 10 3.35 0.5 3.35
9 0 -1.192093E-07 0 1 0 1 0 -1 0 -1.192093E-07 -50 -2 30 3.35 0.5 3.35
9 0 -1.192093E-07 0 1 0 1 0 -1 0 -1.192093E-07 -30 -2 -30 3.35 0.5 3.35
9 0 -1.192093E-07 0 1 0 1 0 -1 0 -1.192093E-07 -30 -2 -10 3.35 0.5 3.35
9 0 -1.192093E-07 0 1 0 1 0 -1 0 -1.192093E-07 -30 -2 10 3.35 0.5 3.35
9 0 -1.192093E-07 0 1 0 1 0 -1 0 -1.192093E-07 -30 -2 30 3.35 0.5 3.35
9 0 -1.192093E-07 0 1 0 1 0 -1 0 -1.192093E-07 -10 -2 -30 3.35 0.5 3.35
9 0 -1.192093E-07 0 1 0 1 0 -1 0 -1.192093E-07 -10 -2 -10 3.35 0.5 3.35
9 0 -1.192093E-07 0 1 0 1 0 -1 0 -1.192093E-07 -10 -2 10 3.35 0.5 3.35
9 0 -1.192093E-07 0 1 0 1 0 -1 0 -1.192093E-07 -10 -2 30 3.35 0.5 3.35
9 0 -1.192093E-07 0 1 0 1 0 -1 0 -1.192093E-07 10 -2 -30 3.35 0.5 3.35
9 0 -1.192093E-07 0 1 0 1 0 -1 0 -1.192093E-07 10 -2 -10 3.35 0.5 3.35
9 0 -1.192093E-07 0 1 0 1 0 -1 0 -1.192093E-07 10 -2 10 3.35 0.5 3.35
9 0 -1.192093E-07 0 1 0 1 0 -1 0 -1.192093E-07 10 -2 30 3.35 0.5 3.35
9 0 -1.192093E-07 0 1 0 1 0 -1 0 -1.192093E-07 30 -2 -30 3.35 0.5 3.35
9 0 -1.192093E-07 0 1 0 1 0 -1 0 -1.192093E-07 30 -2 -10 3.35 0.5 3.35
9 0 -1.192093E-07 0 1 0 1 0 -1 0 -1.192093E-07 30 -2 10 3.35 0.5 3.35
9 0 -1.192093E-07 0 1 0 1 0 -1 0 -1.192093E-07 30 -2 30 3.35 0.5 3.35
9 0 -1.192093E-07 0 1 0 1 0 -1 0 -1.192093E-07 50 -2 -30 3.35 0.5 3.35
9 0 -1.192093E-07 0 1 0 1 0 -1 0 -1.192093E-07 50 -2 -10 3.35 0.5 3.35
9 0 -1.192093E-07 0 1 0 1 0 -1 0 -1.192093E-07 50 -2 10 3.35 0.5 3.35
9 0 -1.192093E-07 0 1 0 1 0 -1 0 -1.192093E-07 50 -2 30 3.35 0.5 3.35
9 0 1 0 0 0 1 0 0 0 1 0 2 0.5 59.5 0.5 38
9 0 1 0 0 0 1 0 0 0 1 0 4.5 38 78.5 2 0.5
9 0 1 0 0 0 1 0 0 0 1 0 4 -38 58.5 2.5 0.5
9 0 1 0 0 0 1 0 0 0 1 66 2 20 6.5 0.5 18.5
9 0 1 0 0 0 1 0 0 0 1 -66 2 20 6.5 0.5 18.5
9 0 1 0 0 0 1 0 0 0 1 63 2 -7.5 3.5 0.5 9
9 0 1 0 0 0 1 0 0 0 1 -62.5 2 -9 3 0.5 10.5
9 0 1 0 0 0 1 0 0 0 1 75.5 2 29 3 0.5 9.5
9 0 1 0 0 0 1 0 0 0 1 -75.5 2 29 3 0.5 9.5
9 0 1 0 0 0 1 0 0 0 1 78 4.5 28.5 0.5 2 9
9 0 1 0 0 0 1 0 0 0 1 -78 4.5 29 0.5 2 8.5
9 0 1 0 0 0 1 0 0 0 1 61.5 2 -21 2 0.5 4.5
9 0 1 0 0 0 1 0 0 0 1 -67 2 -4.5 1.5 0.5 6
9 0 1 0 0 0 1 0 0 0 1 74 2 15 1.5 0.5 4.5
9 0 1 0 0 0 1 0 0 0 1 68 2 -3 1.5 0.5 4.5
9 0 1 0 0 0 1 0 0 0 1 -61 2 -24 1.5 0.5 4.5
9 0 1 0 0 0 1 0 0 0 1 -74 2 15 1.5 0.5 4.5
9 0 1 0 0 0 1 0 0 0 1 60.5 2 -28.5 1 0.5 3
9 0 1 0 0 0 1 0 0 0 1 -69.5 2 -1.5 1 0.5 3
